data/lp_files/pEFS/70_1.lp
\ Model foo
\ LP format - for model browsing. Use MPS format to capture full model detail.
Minimize
  z
Subject To
 allocateEach[1]: x[1,1] + x[2,1] + x[3,1] + x[4,1] = 1
 allocateEach[2]: x[1,2] + x[2,2] + x[3,2] + x[4,2] = 1
 allocateEach[3]: x[1,3] + x[2,3] + x[3,3] + x[4,3] = 1
 allocateEach[4]: x[1,4] + x[2,4] + x[3,4] + x[4,4] = 1
 allocateEach[5]: x[1,5] + x[2,5] + x[3,5] + x[4,5] = 1
 allocateEach[6]: x[1,6] + x[2,6] + x[3,6] + x[4,6] = 1
 allocateEach[7]: x[1,7] + x[2,7] + x[3,7] + x[4,7] = 1
 allocateEach[8]: x[1,8] + x[2,8] + x[3,8] + x[4,8] = 1
 allocateEach[9]: x[1,9] + x[2,9] + x[3,9] + x[4,9] = 1
 allocateEach[10]: x[1,10] + x[2,10] + x[3,10] + x[4,10] = 1
 allocateAllCash: cashProportion[1] + cashProportion[2] + cashProportion[3]
   + cashProportion[4] = 1
 findWorstP[1,2]: z + 0.0153475451601516 cashProportion[1]
   - 0.0153475451601516 cashProportion[2] + 0.0170664702180886 x[1,1]
   + 0.1345365808738892 x[1,2] + 0.1375907423607594 x[1,3]
   + 0.1370535782801541 x[1,4] + 0.1112543548659392 x[1,5]
   + 0.1501910769372439 x[1,6] + 0.0153935877956321 x[1,7]
   + 0.1397240511380205 x[1,8] + 0.00590880488665838 x[1,9]
   + 0.135933207483463 x[1,10] - 0.0170664702180886 x[2,1]
   - 0.1345365808738892 x[2,2] - 0.1375907423607594 x[2,3]
   - 0.1370535782801541 x[2,4] - 0.1112543548659392 x[2,5]
   - 0.1501910769372439 x[2,6] - 0.0153935877956321 x[2,7]
   - 0.1397240511380205 x[2,8] - 0.00590880488665838 x[2,9]
   - 0.135933207483463 x[2,10] >= 0
 findWorstP[1,3]: z + 0.0153475451601516 cashProportion[1]
   - 0.0153475451601516 cashProportion[3] + 0.0170664702180886 x[1,1]
   + 0.1345365808738892 x[1,2] + 0.1375907423607594 x[1,3]
   + 0.1370535782801541 x[1,4] + 0.1112543548659392 x[1,5]
   + 0.1501910769372439 x[1,6] + 0.0153935877956321 x[1,7]
   + 0.1397240511380205 x[1,8] + 0.00590880488665838 x[1,9]
   + 0.135933207483463 x[1,10] - 0.0170664702180886 x[3,1]
   - 0.1345365808738892 x[3,2] - 0.1375907423607594 x[3,3]
   - 0.1370535782801541 x[3,4] - 0.1112543548659392 x[3,5]
   - 0.1501910769372439 x[3,6] - 0.0153935877956321 x[3,7]
   - 0.1397240511380205 x[3,8] - 0.00590880488665838 x[3,9]
   - 0.135933207483463 x[3,10] >= 0
 findWorstP[1,4]: z + 0.0153475451601516 cashProportion[1]
   - 0.0153475451601516 cashProportion[4] + 0.0170664702180886 x[1,1]
   + 0.1345365808738892 x[1,2] + 0.1375907423607594 x[1,3]
   + 0.1370535782801541 x[1,4] + 0.1112543548659392 x[1,5]
   + 0.1501910769372439 x[1,6] + 0.0153935877956321 x[1,7]
   + 0.1397240511380205 x[1,8] + 0.00590880488665838 x[1,9]
   + 0.135933207483463 x[1,10] - 0.0170664702180886 x[4,1]
   - 0.1345365808738892 x[4,2] - 0.1375907423607594 x[4,3]
   - 0.1370535782801541 x[4,4] - 0.1112543548659392 x[4,5]
   - 0.1501910769372439 x[4,6] - 0.0153935877956321 x[4,7]
   - 0.1397240511380205 x[4,8] - 0.00590880488665838 x[4,9]
   - 0.135933207483463 x[4,10] >= 0
 findWorstP[2,1]: z - 0.0170456482460028 cashProportion[1]
   + 0.0170456482460028 cashProportion[2] - 0.0385231650359663 x[1,1]
   - 0.1479050898305663 x[1,2] - 0.1540074319026352 x[1,3]
   - 0.0199434084478233 x[1,4] - 0.1658882487300992 x[1,5]
   - 0.1107285310060342 x[1,6] - 0.0355572222411618 x[1,7]
   - 0.1457402925033239 x[1,8] - 0.1195581767974636 x[1,9]
   - 0.0451027852589234 x[1,10] + 0.0385231650359663 x[2,1]
   + 0.1479050898305663 x[2,2] + 0.1540074319026352 x[2,3]
   + 0.0199434084478233 x[2,4] + 0.1658882487300992 x[2,5]
   + 0.1107285310060342 x[2,6] + 0.0355572222411618 x[2,7]
   + 0.1457402925033239 x[2,8] + 0.1195581767974636 x[2,9]
   + 0.0451027852589234 x[2,10] >= 0
 findWorstP[2,3]: z + 0.0170456482460028 cashProportion[2]
   - 0.0170456482460028 cashProportion[3] + 0.0385231650359663 x[2,1]
   + 0.1479050898305663 x[2,2] + 0.1540074319026352 x[2,3]
   + 0.0199434084478233 x[2,4] + 0.1658882487300992 x[2,5]
   + 0.1107285310060342 x[2,6] + 0.0355572222411618 x[2,7]
   + 0.1457402925033239 x[2,8] + 0.1195581767974636 x[2,9]
   + 0.0451027852589234 x[2,10] - 0.0385231650359663 x[3,1]
   - 0.1479050898305663 x[3,2] - 0.1540074319026352 x[3,3]
   - 0.0199434084478233 x[3,4] - 0.1658882487300992 x[3,5]
   - 0.1107285310060342 x[3,6] - 0.0355572222411618 x[3,7]
   - 0.1457402925033239 x[3,8] - 0.1195581767974636 x[3,9]
   - 0.0451027852589234 x[3,10] >= 0
 findWorstP[2,4]: z + 0.0170456482460028 cashProportion[2]
   - 0.0170456482460028 cashProportion[4] + 0.0385231650359663 x[2,1]
   + 0.1479050898305663 x[2,2] + 0.1540074319026352 x[2,3]
   + 0.0199434084478233 x[2,4] + 0.1658882487300992 x[2,5]
   + 0.1107285310060342 x[2,6] + 0.0355572222411618 x[2,7]
   + 0.1457402925033239 x[2,8] + 0.1195581767974636 x[2,9]
   + 0.0451027852589234 x[2,10] - 0.0385231650359663 x[4,1]
   - 0.1479050898305663 x[4,2] - 0.1540074319026352 x[4,3]
   - 0.0199434084478233 x[4,4] - 0.1658882487300992 x[4,5]
   - 0.1107285310060342 x[4,6] - 0.0355572222411618 x[4,7]
   - 0.1457402925033239 x[4,8] - 0.1195581767974636 x[4,9]
   - 0.0451027852589234 x[4,10] >= 0
 findWorstP[3,1]: z - 0.0265646583784933 cashProportion[1]
   + 0.0265646583784933 cashProportion[3] - 0.090585485070662 x[1,1]
   - 0.0490117947083201 x[1,2] - 0.2482998618637764 x[1,3]
   - 0.0744873020932951 x[1,4] - 0.1518435872914674 x[1,5]
   - 0.0462756348953352 x[1,6] - 0.1718999043672298 x[1,7]
   - 0.0411486558282861 x[1,8] - 0.0290617362660716 x[1,9]
   - 0.070821379237063 x[1,10] + 0.090585485070662 x[3,1]
   + 0.0490117947083201 x[3,2] + 0.2482998618637764 x[3,3]
   + 0.0744873020932951 x[3,4] + 0.1518435872914674 x[3,5]
   + 0.0462756348953352 x[3,6] + 0.1718999043672298 x[3,7]
   + 0.0411486558282861 x[3,8] + 0.0290617362660716 x[3,9]
   + 0.070821379237063 x[3,10] >= 0
 findWorstP[3,2]: z - 0.0265646583784933 cashProportion[2]
   + 0.0265646583784933 cashProportion[3] - 0.090585485070662 x[2,1]
   - 0.0490117947083201 x[2,2] - 0.2482998618637764 x[2,3]
   - 0.0744873020932951 x[2,4] - 0.1518435872914674 x[2,5]
   - 0.0462756348953352 x[2,6] - 0.1718999043672298 x[2,7]
   - 0.0411486558282861 x[2,8] - 0.0290617362660716 x[2,9]
   - 0.070821379237063 x[2,10] + 0.090585485070662 x[3,1]
   + 0.0490117947083201 x[3,2] + 0.2482998618637764 x[3,3]
   + 0.0744873020932951 x[3,4] + 0.1518435872914674 x[3,5]
   + 0.0462756348953352 x[3,6] + 0.1718999043672298 x[3,7]
   + 0.0411486558282861 x[3,8] + 0.0290617362660716 x[3,9]
   + 0.070821379237063 x[3,10] >= 0
 findWorstP[3,4]: z + 0.0265646583784933 cashProportion[3]
   - 0.0265646583784933 cashProportion[4] + 0.090585485070662 x[3,1]
   + 0.0490117947083201 x[3,2] + 0.2482998618637764 x[3,3]
   + 0.0744873020932951 x[3,4] + 0.1518435872914674 x[3,5]
   + 0.0462756348953352 x[3,6] + 0.1718999043672298 x[3,7]
   + 0.0411486558282861 x[3,8] + 0.0290617362660716 x[3,9]
   + 0.070821379237063 x[3,10] - 0.090585485070662 x[4,1]
   - 0.0490117947083201 x[4,2] - 0.2482998618637764 x[4,3]
   - 0.0744873020932951 x[4,4] - 0.1518435872914674 x[4,5]
   - 0.0462756348953352 x[4,6] - 0.1718999043672298 x[4,7]
   - 0.0411486558282861 x[4,8] - 0.0290617362660716 x[4,9]
   - 0.070821379237063 x[4,10] >= 0
 findWorstP[4,1]: z - 0.0216665944446852 cashProportion[1]
   + 0.0216665944446852 cashProportion[4] - 0.1916626944576852 x[1,1]
   - 0.0048316505611648 x[1,2] - 0.0808380638731204 x[1,3]
   - 0.024916583611388 x[1,4] - 0.0808597304675651 x[1,5]
   - 0.0782164059453135 x[1,6] - 0.1459245135849548 x[1,7]
   - 0.0828530571564762 x[1,8] - 0.1674611084629718 x[1,9]
   - 0.1207695974346752 x[1,10] + 0.1916626944576852 x[4,1]
   + 0.0048316505611648 x[4,2] + 0.0808380638731204 x[4,3]
   + 0.024916583611388 x[4,4] + 0.0808597304675651 x[4,5]
   + 0.0782164059453135 x[4,6] + 0.1459245135849548 x[4,7]
   + 0.0828530571564762 x[4,8] + 0.1674611084629718 x[4,9]
   + 0.1207695974346752 x[4,10] >= 0
 findWorstP[4,2]: z - 0.0216665944446852 cashProportion[2]
   + 0.0216665944446852 cashProportion[4] - 0.1916626944576852 x[2,1]
   - 0.0048316505611648 x[2,2] - 0.0808380638731204 x[2,3]
   - 0.024916583611388 x[2,4] - 0.0808597304675651 x[2,5]
   - 0.0782164059453135 x[2,6] - 0.1459245135849548 x[2,7]
   - 0.0828530571564762 x[2,8] - 0.1674611084629718 x[2,9]
   - 0.1207695974346752 x[2,10] + 0.1916626944576852 x[4,1]
   + 0.0048316505611648 x[4,2] + 0.0808380638731204 x[4,3]
   + 0.024916583611388 x[4,4] + 0.0808597304675651 x[4,5]
   + 0.0782164059453135 x[4,6] + 0.1459245135849548 x[4,7]
   + 0.0828530571564762 x[4,8] + 0.1674611084629718 x[4,9]
   + 0.1207695974346752 x[4,10] >= 0
 findWorstP[4,3]: z - 0.0216665944446852 cashProportion[3]
   + 0.0216665944446852 cashProportion[4] - 0.1916626944576852 x[3,1]
   - 0.0048316505611648 x[3,2] - 0.0808380638731204 x[3,3]
   - 0.024916583611388 x[3,4] - 0.0808597304675651 x[3,5]
   - 0.0782164059453135 x[3,6] - 0.1459245135849548 x[3,7]
   - 0.0828530571564762 x[3,8] - 0.1674611084629718 x[3,9]
   - 0.1207695974346752 x[3,10] + 0.1916626944576852 x[4,1]
   + 0.0048316505611648 x[4,2] + 0.0808380638731204 x[4,3]
   + 0.024916583611388 x[4,4] + 0.0808597304675651 x[4,5]
   + 0.0782164059453135 x[4,6] + 0.1459245135849548 x[4,7]
   + 0.0828530571564762 x[4,8] + 0.1674611084629718 x[4,9]
   + 0.1207695974346752 x[4,10] >= 0
Bounds
 z <= 1
 -infinity <= cashProportion[1] <= 1
 -infinity <= cashProportion[2] <= 1
 -infinity <= cashProportion[3] <= 1
 -infinity <= cashProportion[4] <= 1
Binaries
 x[1,1] x[1,2] x[1,3] x[1,4] x[1,5] x[1,6] x[1,7] x[1,8] x[1,9] x[1,10]
 x[2,1] x[2,2] x[2,3] x[2,4] x[2,5] x[2,6] x[2,7] x[2,8] x[2,9] x[2,10]
 x[3,1] x[3,2] x[3,3] x[3,4] x[3,5] x[3,6] x[3,7] x[3,8] x[3,9] x[3,10]
 x[4,1] x[4,2] x[4,3] x[4,4] x[4,5] x[4,6] x[4,7] x[4,8] x[4,9] x[4,10]
End
