data/mps_files/pEFS/70_1.mps
NAME foo
ROWS
 N  OBJ
 E  allocateEach[1]
 E  allocateEach[2]
 E  allocateEach[3]
 E  allocateEach[4]
 E  allocateEach[5]
 E  allocateEach[6]
 E  allocateEach[7]
 E  allocateEach[8]
 E  allocateEach[9]
 E  allocateEach[10]
 E  allocateAllCash
 G  findWorstP[1,2]
 G  findWorstP[1,3]
 G  findWorstP[1,4]
 G  findWorstP[2,1]
 G  findWorstP[2,3]
 G  findWorstP[2,4]
 G  findWorstP[3,1]
 G  findWorstP[3,2]
 G  findWorstP[3,4]
 G  findWorstP[4,1]
 G  findWorstP[4,2]
 G  findWorstP[4,3]
COLUMNS
    z         OBJ       1
    z         findWorstP[1,2]  1
    z         findWorstP[1,3]  1
    z         findWorstP[1,4]  1
    z         findWorstP[2,1]  1
    z         findWorstP[2,3]  1
    z         findWorstP[2,4]  1
    z         findWorstP[3,1]  1
    z         findWorstP[3,2]  1
    z         findWorstP[3,4]  1
    z         findWorstP[4,1]  1
    z         findWorstP[4,2]  1
    z         findWorstP[4,3]  1
    cashProportion[1]  allocateAllCash  1
    cashProportion[1]  findWorstP[1,2]  1.5347545160151636e-02
    cashProportion[1]  findWorstP[1,3]  1.5347545160151636e-02
    cashProportion[1]  findWorstP[1,4]  1.5347545160151636e-02
    cashProportion[1]  findWorstP[2,1]  -1.7045648246002795e-02
    cashProportion[1]  findWorstP[3,1]  -2.6564658378493256e-02
    cashProportion[1]  findWorstP[4,1]  -2.1666594444685189e-02
    cashProportion[2]  allocateAllCash  1
    cashProportion[2]  findWorstP[1,2]  -1.5347545160151636e-02
    cashProportion[2]  findWorstP[2,1]  1.7045648246002795e-02
    cashProportion[2]  findWorstP[2,3]  1.7045648246002795e-02
    cashProportion[2]  findWorstP[2,4]  1.7045648246002795e-02
    cashProportion[2]  findWorstP[3,2]  -2.6564658378493256e-02
    cashProportion[2]  findWorstP[4,2]  -2.1666594444685189e-02
    cashProportion[3]  allocateAllCash  1
    cashProportion[3]  findWorstP[1,3]  -1.5347545160151636e-02
    cashProportion[3]  findWorstP[2,3]  -1.7045648246002795e-02
    cashProportion[3]  findWorstP[3,1]  2.6564658378493256e-02
    cashProportion[3]  findWorstP[3,2]  2.6564658378493256e-02
    cashProportion[3]  findWorstP[3,4]  2.6564658378493256e-02
    cashProportion[3]  findWorstP[4,3]  -2.1666594444685189e-02
    cashProportion[4]  allocateAllCash  1
    cashProportion[4]  findWorstP[1,4]  -1.5347545160151636e-02
    cashProportion[4]  findWorstP[2,4]  -1.7045648246002795e-02
    cashProportion[4]  findWorstP[3,4]  -2.6564658378493256e-02
    cashProportion[4]  findWorstP[4,1]  2.1666594444685189e-02
    cashProportion[4]  findWorstP[4,2]  2.1666594444685189e-02
    cashProportion[4]  findWorstP[4,3]  2.1666594444685189e-02
    MARKER    'MARKER'                 'INTORG'
    x[1,1]    allocateEach[1]  1
    x[1,1]    findWorstP[1,2]  1.7066470218088617e-02
    x[1,1]    findWorstP[1,3]  1.7066470218088617e-02
    x[1,1]    findWorstP[1,4]  1.7066470218088617e-02
    x[1,1]    findWorstP[2,1]  -3.8523165035966318e-02
    x[1,1]    findWorstP[3,1]  -9.0585485070662011e-02
    x[1,1]    findWorstP[4,1]  -1.9166269445768519e-01
    x[1,2]    allocateEach[2]  1
    x[1,2]    findWorstP[1,2]  1.3453658087388923e-01
    x[1,2]    findWorstP[1,3]  1.3453658087388923e-01
    x[1,2]    findWorstP[1,4]  1.3453658087388923e-01
    x[1,2]    findWorstP[2,1]  -1.4790508983056627e-01
    x[1,2]    findWorstP[3,1]  -4.9011794708320053e-02
    x[1,2]    findWorstP[4,1]  -4.8316505611647968e-03
    x[1,3]    allocateEach[3]  1
    x[1,3]    findWorstP[1,2]  1.3759074236075941e-01
    x[1,3]    findWorstP[1,3]  1.3759074236075941e-01
    x[1,3]    findWorstP[1,4]  1.3759074236075941e-01
    x[1,3]    findWorstP[2,1]  -1.5400743190263524e-01
    x[1,3]    findWorstP[3,1]  -2.4829986186377645e-01
    x[1,3]    findWorstP[4,1]  -8.0838063873120439e-02
    x[1,4]    allocateEach[4]  1
    x[1,4]    findWorstP[1,2]  1.3705357828015410e-01
    x[1,4]    findWorstP[1,3]  1.3705357828015410e-01
    x[1,4]    findWorstP[1,4]  1.3705357828015410e-01
    x[1,4]    findWorstP[2,1]  -1.9943408447823271e-02
    x[1,4]    findWorstP[3,1]  -7.4487302093295085e-02
    x[1,4]    findWorstP[4,1]  -2.4916583611387967e-02
    x[1,5]    allocateEach[5]  1
    x[1,5]    findWorstP[1,2]  1.1125435486593920e-01
    x[1,5]    findWorstP[1,3]  1.1125435486593920e-01
    x[1,5]    findWorstP[1,4]  1.1125435486593920e-01
    x[1,5]    findWorstP[2,1]  -1.6588824873009919e-01
    x[1,5]    findWorstP[3,1]  -1.5184358729146744e-01
    x[1,5]    findWorstP[4,1]  -8.0859730467565116e-02
    x[1,6]    allocateEach[6]  1
    x[1,6]    findWorstP[1,2]  1.5019107693724390e-01
    x[1,6]    findWorstP[1,3]  1.5019107693724390e-01
    x[1,6]    findWorstP[1,4]  1.5019107693724390e-01
    x[1,6]    findWorstP[2,1]  -1.1072853100603415e-01
    x[1,6]    findWorstP[3,1]  -4.6275634895335246e-02
    x[1,6]    findWorstP[4,1]  -7.8216405945313525e-02
    x[1,7]    allocateEach[7]  1
    x[1,7]    findWorstP[1,2]  1.5393587795632090e-02
    x[1,7]    findWorstP[1,3]  1.5393587795632090e-02
    x[1,7]    findWorstP[1,4]  1.5393587795632090e-02
    x[1,7]    findWorstP[2,1]  -3.5557222241161833e-02
    x[1,7]    findWorstP[3,1]  -1.7189990436722985e-01
    x[1,7]    findWorstP[4,1]  -1.4592451358495476e-01
    x[1,8]    allocateEach[8]  1
    x[1,8]    findWorstP[1,2]  1.3972405113802047e-01
    x[1,8]    findWorstP[1,3]  1.3972405113802047e-01
    x[1,8]    findWorstP[1,4]  1.3972405113802047e-01
    x[1,8]    findWorstP[2,1]  -1.4574029250332390e-01
    x[1,8]    findWorstP[3,1]  -4.1148655828286057e-02
    x[1,8]    findWorstP[4,1]  -8.2853057156476159e-02
    x[1,9]    allocateEach[9]  1
    x[1,9]    findWorstP[1,2]  0.00590880488665838
    x[1,9]    findWorstP[1,3]  0.00590880488665838
    x[1,9]    findWorstP[1,4]  0.00590880488665838
    x[1,9]    findWorstP[2,1]  -1.1955817679746361e-01
    x[1,9]    findWorstP[3,1]  -2.9061736266071621e-02
    x[1,9]    findWorstP[4,1]  -1.6746110846297182e-01
    x[1,10]   allocateEach[10]  1
    x[1,10]   findWorstP[1,2]  1.3593320748346305e-01
    x[1,10]   findWorstP[1,3]  1.3593320748346305e-01
    x[1,10]   findWorstP[1,4]  1.3593320748346305e-01
    x[1,10]   findWorstP[2,1]  -4.5102785258923396e-02
    x[1,10]   findWorstP[3,1]  -7.0821379237063026e-02
    x[1,10]   findWorstP[4,1]  -1.2076959743467525e-01
    x[2,1]    allocateEach[1]  1
    x[2,1]    findWorstP[1,2]  -1.7066470218088617e-02
    x[2,1]    findWorstP[2,1]  3.8523165035966318e-02
    x[2,1]    findWorstP[2,3]  3.8523165035966318e-02
    x[2,1]    findWorstP[2,4]  3.8523165035966318e-02
    x[2,1]    findWorstP[3,2]  -9.0585485070662011e-02
    x[2,1]    findWorstP[4,2]  -1.9166269445768519e-01
    x[2,2]    allocateEach[2]  1
    x[2,2]    findWorstP[1,2]  -1.3453658087388923e-01
    x[2,2]    findWorstP[2,1]  1.4790508983056627e-01
    x[2,2]    findWorstP[2,3]  1.4790508983056627e-01
    x[2,2]    findWorstP[2,4]  1.4790508983056627e-01
    x[2,2]    findWorstP[3,2]  -4.9011794708320053e-02
    x[2,2]    findWorstP[4,2]  -4.8316505611647968e-03
    x[2,3]    allocateEach[3]  1
    x[2,3]    findWorstP[1,2]  -1.3759074236075941e-01
    x[2,3]    findWorstP[2,1]  1.5400743190263524e-01
    x[2,3]    findWorstP[2,3]  1.5400743190263524e-01
    x[2,3]    findWorstP[2,4]  1.5400743190263524e-01
    x[2,3]    findWorstP[3,2]  -2.4829986186377645e-01
    x[2,3]    findWorstP[4,2]  -8.0838063873120439e-02
    x[2,4]    allocateEach[4]  1
    x[2,4]    findWorstP[1,2]  -1.3705357828015410e-01
    x[2,4]    findWorstP[2,1]  1.9943408447823271e-02
    x[2,4]    findWorstP[2,3]  1.9943408447823271e-02
    x[2,4]    findWorstP[2,4]  1.9943408447823271e-02
    x[2,4]    findWorstP[3,2]  -7.4487302093295085e-02
    x[2,4]    findWorstP[4,2]  -2.4916583611387967e-02
    x[2,5]    allocateEach[5]  1
    x[2,5]    findWorstP[1,2]  -1.1125435486593920e-01
    x[2,5]    findWorstP[2,1]  1.6588824873009919e-01
    x[2,5]    findWorstP[2,3]  1.6588824873009919e-01
    x[2,5]    findWorstP[2,4]  1.6588824873009919e-01
    x[2,5]    findWorstP[3,2]  -1.5184358729146744e-01
    x[2,5]    findWorstP[4,2]  -8.0859730467565116e-02
    x[2,6]    allocateEach[6]  1
    x[2,6]    findWorstP[1,2]  -1.5019107693724390e-01
    x[2,6]    findWorstP[2,1]  1.1072853100603415e-01
    x[2,6]    findWorstP[2,3]  1.1072853100603415e-01
    x[2,6]    findWorstP[2,4]  1.1072853100603415e-01
    x[2,6]    findWorstP[3,2]  -4.6275634895335246e-02
    x[2,6]    findWorstP[4,2]  -7.8216405945313525e-02
    x[2,7]    allocateEach[7]  1
    x[2,7]    findWorstP[1,2]  -1.5393587795632090e-02
    x[2,7]    findWorstP[2,1]  3.5557222241161833e-02
    x[2,7]    findWorstP[2,3]  3.5557222241161833e-02
    x[2,7]    findWorstP[2,4]  3.5557222241161833e-02
    x[2,7]    findWorstP[3,2]  -1.7189990436722985e-01
    x[2,7]    findWorstP[4,2]  -1.4592451358495476e-01
    x[2,8]    allocateEach[8]  1
    x[2,8]    findWorstP[1,2]  -1.3972405113802047e-01
    x[2,8]    findWorstP[2,1]  1.4574029250332390e-01
    x[2,8]    findWorstP[2,3]  1.4574029250332390e-01
    x[2,8]    findWorstP[2,4]  1.4574029250332390e-01
    x[2,8]    findWorstP[3,2]  -4.1148655828286057e-02
    x[2,8]    findWorstP[4,2]  -8.2853057156476159e-02
    x[2,9]    allocateEach[9]  1
    x[2,9]    findWorstP[1,2]  -0.00590880488665838
    x[2,9]    findWorstP[2,1]  1.1955817679746361e-01
    x[2,9]    findWorstP[2,3]  1.1955817679746361e-01
    x[2,9]    findWorstP[2,4]  1.1955817679746361e-01
    x[2,9]    findWorstP[3,2]  -2.9061736266071621e-02
    x[2,9]    findWorstP[4,2]  -1.6746110846297182e-01
    x[2,10]   allocateEach[10]  1
    x[2,10]   findWorstP[1,2]  -1.3593320748346305e-01
    x[2,10]   findWorstP[2,1]  4.5102785258923396e-02
    x[2,10]   findWorstP[2,3]  4.5102785258923396e-02
    x[2,10]   findWorstP[2,4]  4.5102785258923396e-02
    x[2,10]   findWorstP[3,2]  -7.0821379237063026e-02
    x[2,10]   findWorstP[4,2]  -1.2076959743467525e-01
    x[3,1]    allocateEach[1]  1
    x[3,1]    findWorstP[1,3]  -1.7066470218088617e-02
    x[3,1]    findWorstP[2,3]  -3.8523165035966318e-02
    x[3,1]    findWorstP[3,1]  9.0585485070662011e-02
    x[3,1]    findWorstP[3,2]  9.0585485070662011e-02
    x[3,1]    findWorstP[3,4]  9.0585485070662011e-02
    x[3,1]    findWorstP[4,3]  -1.9166269445768519e-01
    x[3,2]    allocateEach[2]  1
    x[3,2]    findWorstP[1,3]  -1.3453658087388923e-01
    x[3,2]    findWorstP[2,3]  -1.4790508983056627e-01
    x[3,2]    findWorstP[3,1]  4.9011794708320053e-02
    x[3,2]    findWorstP[3,2]  4.9011794708320053e-02
    x[3,2]    findWorstP[3,4]  4.9011794708320053e-02
    x[3,2]    findWorstP[4,3]  -4.8316505611647968e-03
    x[3,3]    allocateEach[3]  1
    x[3,3]    findWorstP[1,3]  -1.3759074236075941e-01
    x[3,3]    findWorstP[2,3]  -1.5400743190263524e-01
    x[3,3]    findWorstP[3,1]  2.4829986186377645e-01
    x[3,3]    findWorstP[3,2]  2.4829986186377645e-01
    x[3,3]    findWorstP[3,4]  2.4829986186377645e-01
    x[3,3]    findWorstP[4,3]  -8.0838063873120439e-02
    x[3,4]    allocateEach[4]  1
    x[3,4]    findWorstP[1,3]  -1.3705357828015410e-01
    x[3,4]    findWorstP[2,3]  -1.9943408447823271e-02
    x[3,4]    findWorstP[3,1]  7.4487302093295085e-02
    x[3,4]    findWorstP[3,2]  7.4487302093295085e-02
    x[3,4]    findWorstP[3,4]  7.4487302093295085e-02
    x[3,4]    findWorstP[4,3]  -2.4916583611387967e-02
    x[3,5]    allocateEach[5]  1
    x[3,5]    findWorstP[1,3]  -1.1125435486593920e-01
    x[3,5]    findWorstP[2,3]  -1.6588824873009919e-01
    x[3,5]    findWorstP[3,1]  1.5184358729146744e-01
    x[3,5]    findWorstP[3,2]  1.5184358729146744e-01
    x[3,5]    findWorstP[3,4]  1.5184358729146744e-01
    x[3,5]    findWorstP[4,3]  -8.0859730467565116e-02
    x[3,6]    allocateEach[6]  1
    x[3,6]    findWorstP[1,3]  -1.5019107693724390e-01
    x[3,6]    findWorstP[2,3]  -1.1072853100603415e-01
    x[3,6]    findWorstP[3,1]  4.6275634895335246e-02
    x[3,6]    findWorstP[3,2]  4.6275634895335246e-02
    x[3,6]    findWorstP[3,4]  4.6275634895335246e-02
    x[3,6]    findWorstP[4,3]  -7.8216405945313525e-02
    x[3,7]    allocateEach[7]  1
    x[3,7]    findWorstP[1,3]  -1.5393587795632090e-02
    x[3,7]    findWorstP[2,3]  -3.5557222241161833e-02
    x[3,7]    findWorstP[3,1]  1.7189990436722985e-01
    x[3,7]    findWorstP[3,2]  1.7189990436722985e-01
    x[3,7]    findWorstP[3,4]  1.7189990436722985e-01
    x[3,7]    findWorstP[4,3]  -1.4592451358495476e-01
    x[3,8]    allocateEach[8]  1
    x[3,8]    findWorstP[1,3]  -1.3972405113802047e-01
    x[3,8]    findWorstP[2,3]  -1.4574029250332390e-01
    x[3,8]    findWorstP[3,1]  4.1148655828286057e-02
    x[3,8]    findWorstP[3,2]  4.1148655828286057e-02
    x[3,8]    findWorstP[3,4]  4.1148655828286057e-02
    x[3,8]    findWorstP[4,3]  -8.2853057156476159e-02
    x[3,9]    allocateEach[9]  1
    x[3,9]    findWorstP[1,3]  -0.00590880488665838
    x[3,9]    findWorstP[2,3]  -1.1955817679746361e-01
    x[3,9]    findWorstP[3,1]  2.9061736266071621e-02
    x[3,9]    findWorstP[3,2]  2.9061736266071621e-02
    x[3,9]    findWorstP[3,4]  2.9061736266071621e-02
    x[3,9]    findWorstP[4,3]  -1.6746110846297182e-01
    x[3,10]   allocateEach[10]  1
    x[3,10]   findWorstP[1,3]  -1.3593320748346305e-01
    x[3,10]   findWorstP[2,3]  -4.5102785258923396e-02
    x[3,10]   findWorstP[3,1]  7.0821379237063026e-02
    x[3,10]   findWorstP[3,2]  7.0821379237063026e-02
    x[3,10]   findWorstP[3,4]  7.0821379237063026e-02
    x[3,10]   findWorstP[4,3]  -1.2076959743467525e-01
    x[4,1]    allocateEach[1]  1
    x[4,1]    findWorstP[1,4]  -1.7066470218088617e-02
    x[4,1]    findWorstP[2,4]  -3.8523165035966318e-02
    x[4,1]    findWorstP[3,4]  -9.0585485070662011e-02
    x[4,1]    findWorstP[4,1]  1.9166269445768519e-01
    x[4,1]    findWorstP[4,2]  1.9166269445768519e-01
    x[4,1]    findWorstP[4,3]  1.9166269445768519e-01
    x[4,2]    allocateEach[2]  1
    x[4,2]    findWorstP[1,4]  -1.3453658087388923e-01
    x[4,2]    findWorstP[2,4]  -1.4790508983056627e-01
    x[4,2]    findWorstP[3,4]  -4.9011794708320053e-02
    x[4,2]    findWorstP[4,1]  4.8316505611647968e-03
    x[4,2]    findWorstP[4,2]  4.8316505611647968e-03
    x[4,2]    findWorstP[4,3]  4.8316505611647968e-03
    x[4,3]    allocateEach[3]  1
    x[4,3]    findWorstP[1,4]  -1.3759074236075941e-01
    x[4,3]    findWorstP[2,4]  -1.5400743190263524e-01
    x[4,3]    findWorstP[3,4]  -2.4829986186377645e-01
    x[4,3]    findWorstP[4,1]  8.0838063873120439e-02
    x[4,3]    findWorstP[4,2]  8.0838063873120439e-02
    x[4,3]    findWorstP[4,3]  8.0838063873120439e-02
    x[4,4]    allocateEach[4]  1
    x[4,4]    findWorstP[1,4]  -1.3705357828015410e-01
    x[4,4]    findWorstP[2,4]  -1.9943408447823271e-02
    x[4,4]    findWorstP[3,4]  -7.4487302093295085e-02
    x[4,4]    findWorstP[4,1]  2.4916583611387967e-02
    x[4,4]    findWorstP[4,2]  2.4916583611387967e-02
    x[4,4]    findWorstP[4,3]  2.4916583611387967e-02
    x[4,5]    allocateEach[5]  1
    x[4,5]    findWorstP[1,4]  -1.1125435486593920e-01
    x[4,5]    findWorstP[2,4]  -1.6588824873009919e-01
    x[4,5]    findWorstP[3,4]  -1.5184358729146744e-01
    x[4,5]    findWorstP[4,1]  8.0859730467565116e-02
    x[4,5]    findWorstP[4,2]  8.0859730467565116e-02
    x[4,5]    findWorstP[4,3]  8.0859730467565116e-02
    x[4,6]    allocateEach[6]  1
    x[4,6]    findWorstP[1,4]  -1.5019107693724390e-01
    x[4,6]    findWorstP[2,4]  -1.1072853100603415e-01
    x[4,6]    findWorstP[3,4]  -4.6275634895335246e-02
    x[4,6]    findWorstP[4,1]  7.8216405945313525e-02
    x[4,6]    findWorstP[4,2]  7.8216405945313525e-02
    x[4,6]    findWorstP[4,3]  7.8216405945313525e-02
    x[4,7]    allocateEach[7]  1
    x[4,7]    findWorstP[1,4]  -1.5393587795632090e-02
    x[4,7]    findWorstP[2,4]  -3.5557222241161833e-02
    x[4,7]    findWorstP[3,4]  -1.7189990436722985e-01
    x[4,7]    findWorstP[4,1]  1.4592451358495476e-01
    x[4,7]    findWorstP[4,2]  1.4592451358495476e-01
    x[4,7]    findWorstP[4,3]  1.4592451358495476e-01
    x[4,8]    allocateEach[8]  1
    x[4,8]    findWorstP[1,4]  -1.3972405113802047e-01
    x[4,8]    findWorstP[2,4]  -1.4574029250332390e-01
    x[4,8]    findWorstP[3,4]  -4.1148655828286057e-02
    x[4,8]    findWorstP[4,1]  8.2853057156476159e-02
    x[4,8]    findWorstP[4,2]  8.2853057156476159e-02
    x[4,8]    findWorstP[4,3]  8.2853057156476159e-02
    x[4,9]    allocateEach[9]  1
    x[4,9]    findWorstP[1,4]  -0.00590880488665838
    x[4,9]    findWorstP[2,4]  -1.1955817679746361e-01
    x[4,9]    findWorstP[3,4]  -2.9061736266071621e-02
    x[4,9]    findWorstP[4,1]  1.6746110846297182e-01
    x[4,9]    findWorstP[4,2]  1.6746110846297182e-01
    x[4,9]    findWorstP[4,3]  1.6746110846297182e-01
    x[4,10]   allocateEach[10]  1
    x[4,10]   findWorstP[1,4]  -1.3593320748346305e-01
    x[4,10]   findWorstP[2,4]  -4.5102785258923396e-02
    x[4,10]   findWorstP[3,4]  -7.0821379237063026e-02
    x[4,10]   findWorstP[4,1]  1.2076959743467525e-01
    x[4,10]   findWorstP[4,2]  1.2076959743467525e-01
    x[4,10]   findWorstP[4,3]  1.2076959743467525e-01
    MARKER    'MARKER'                 'INTEND'
RHS
    RHS1      allocateEach[1]  1
    RHS1      allocateEach[2]  1
    RHS1      allocateEach[3]  1
    RHS1      allocateEach[4]  1
    RHS1      allocateEach[5]  1
    RHS1      allocateEach[6]  1
    RHS1      allocateEach[7]  1
    RHS1      allocateEach[8]  1
    RHS1      allocateEach[9]  1
    RHS1      allocateEach[10]  1
    RHS1      allocateAllCash  1
BOUNDS
 UP BND1      z         1
 MI BND1      cashProportion[1]
 UP BND1      cashProportion[1]  1
 MI BND1      cashProportion[2]
 UP BND1      cashProportion[2]  1
 MI BND1      cashProportion[3]
 UP BND1      cashProportion[3]  1
 MI BND1      cashProportion[4]
 UP BND1      cashProportion[4]  1
 BV BND1      x[1,1]  
 BV BND1      x[1,2]  
 BV BND1      x[1,3]  
 BV BND1      x[1,4]  
 BV BND1      x[1,5]  
 BV BND1      x[1,6]  
 BV BND1      x[1,7]  
 BV BND1      x[1,8]  
 BV BND1      x[1,9]  
 BV BND1      x[1,10] 
 BV BND1      x[2,1]  
 BV BND1      x[2,2]  
 BV BND1      x[2,3]  
 BV BND1      x[2,4]  
 BV BND1      x[2,5]  
 BV BND1      x[2,6]  
 BV BND1      x[2,7]  
 BV BND1      x[2,8]  
 BV BND1      x[2,9]  
 BV BND1      x[2,10] 
 BV BND1      x[3,1]  
 BV BND1      x[3,2]  
 BV BND1      x[3,3]  
 BV BND1      x[3,4]  
 BV BND1      x[3,5]  
 BV BND1      x[3,6]  
 BV BND1      x[3,7]  
 BV BND1      x[3,8]  
 BV BND1      x[3,9]  
 BV BND1      x[3,10] 
 BV BND1      x[4,1]  
 BV BND1      x[4,2]  
 BV BND1      x[4,3]  
 BV BND1      x[4,4]  
 BV BND1      x[4,5]  
 BV BND1      x[4,6]  
 BV BND1      x[4,7]  
 BV BND1      x[4,8]  
 BV BND1      x[4,9]  
 BV BND1      x[4,10] 
ENDATA
